standardized_str                        
   1.00000000000000     
     7.0015001297000001    0.0000000000000000    0.0000000000000000
    -3.5007500648000001    6.0634769768999996    0.0000000000000000
     0.0000000000000000    0.0000000000000000   19.0531997681000007
   Cr   I 
     2     6
Direct
  0.6666666870000029  0.3333333429999996  0.5000000000000000
  0.3333333129999971  0.6666666269999979  0.5000000000000000
  0.6399199960000033  0.0000000000000000  0.5819600219999970
  0.3600800039999967  0.0000000000000000  0.4180399780000030
  0.0000000000000000  0.6399199960000033  0.5819600219999970
  0.0000000000000000  0.3600800039999967  0.4180399780000030
  0.3600800039999967  0.3600800039999967  0.5819600219999970
  0.6399199960000033  0.6399199960000033  0.4180399780000030
 
  0.00000000E+00  0.00000000E+00  0.00000000E+00
  0.00000000E+00  0.00000000E+00  0.00000000E+00
  0.00000000E+00  0.00000000E+00  0.00000000E+00
  0.00000000E+00  0.00000000E+00  0.00000000E+00
  0.00000000E+00  0.00000000E+00  0.00000000E+00
  0.00000000E+00  0.00000000E+00  0.00000000E+00
  0.00000000E+00  0.00000000E+00  0.00000000E+00
  0.00000000E+00  0.00000000E+00  0.00000000E+00
