Cr I
   1.0
    14.0030002594000003    0.0000000000000000    0.0000000000000000
    -7.0015001296000001   12.1269539537999993    0.0000000000000000
     0.0000000000000000    0.0000000000000000   19.0531997681000007
   Cr   I
   8   24
Direct
  0.3333333435000014  0.1666666714999998  0.5000000000000000
  0.8333333435000014  0.1666666714999998  0.5000000000000000
  0.3333333435000014  0.6666666714999998  0.5000000000000000
  0.8333333435000014  0.6666666714999998  0.5000000000000000
  0.1666666564999985  0.3333333134999990  0.5000000000000000
  0.6666666564999986  0.3333333134999990  0.5000000000000000
  0.1666666564999985  0.8333333134999990  0.5000000000000000
  0.6666666564999986  0.8333333134999990  0.5000000000000000
  0.3199599980000016  0.0000000000000000  0.5819600219999970
  0.8199599980000016  0.0000000000000000  0.5819600219999970
  0.3199599980000016  0.5000000000000000  0.5819600219999970
  0.8199599980000016  0.5000000000000000  0.5819600219999970
  0.1800400019999983  0.0000000000000000  0.4180399780000030
  0.6800400019999984  0.0000000000000000  0.4180399780000030
  0.1800400019999983  0.5000000000000000  0.4180399780000030
  0.6800400019999984  0.5000000000000000  0.4180399780000030
  0.0000000000000000  0.3199599980000016  0.5819600219999970
  0.5000000000000000  0.3199599980000016  0.5819600219999970
  0.0000000000000000  0.8199599980000016  0.5819600219999970
  0.5000000000000000  0.8199599980000016  0.5819600219999970
  0.0000000000000000  0.1800400019999983  0.4180399780000030
  0.5000000000000000  0.1800400019999983  0.4180399780000030
  0.0000000000000000  0.6800400019999984  0.4180399780000030
  0.5000000000000000  0.6800400019999984  0.4180399780000030
  0.1800400019999983  0.1800400019999983  0.5819600219999970
  0.6800400019999984  0.1800400019999983  0.5819600219999970
  0.1800400019999983  0.6800400019999984  0.5819600219999970
  0.6800400019999984  0.6800400019999984  0.5819600219999970
  0.3199599980000016  0.3199599980000016  0.4180399780000030
  0.8199599980000016  0.3199599980000016  0.4180399780000030
  0.3199599980000016  0.8199599980000016  0.4180399780000030
  0.8199599980000016  0.8199599980000016  0.4180399780000030
