C7N3                                    
   1.00000000000000     
     8.6961801584505540   -0.0000000088719908    0.0000000000000000
    -4.3480900715419066    7.5311129374971051    0.0000000000000000
     0.0000000000000000    0.0000000000000000   14.7159315804056448
   C    N 
    14     6
Direct
  0.7272085763770164  0.2085229673540354  0.5000000000000000
  0.2727914236229836  0.7914770326459646  0.5000000000000000
  0.7914770326459646  0.5186856090229810  0.5000000000000000
  0.2085229673540354  0.4813143909770190  0.5000000000000000
  0.4813143909770190  0.2727914236229836  0.5000000000000000
  0.5186856090229810  0.7272085763770164  0.5000000000000000
  0.5713361809686717  0.5923824336265753  0.5000000000000000
  0.4286638190313283  0.4076175663734247  0.5000000000000000
  0.4076175663734247  0.9789537473420964  0.5000000000000000
  0.5923824336265753  0.0210462526579036  0.5000000000000000
  0.0210462526579036  0.4286638190313283  0.5000000000000000
  0.9789537473420964  0.5713361809686717  0.5000000000000000
  0.3333333429999996  0.6666666870000029  0.5000000000000000
  0.6666666269999979  0.3333333129999971  0.5000000000000000
  0.2561932613298481  0.3563157949247042  0.5000000000000000
  0.7438067686701473  0.6436842050752958  0.5000000000000000
  0.6436842050752958  0.8998774964051535  0.5000000000000000
  0.3563157949247042  0.1001225335948490  0.5000000000000000
  0.1001225335948490  0.7438067686701473  0.5000000000000000
  0.8998774964051535  0.2561932613298481  0.5000000000000000
