generated by phonopy
   1.0
    17.3923603169011081   -0.0000000177439816    0.0000000000000000
    -8.6961801430838133   15.0622258749942102    0.0000000000000000
     0.0000000000000000    0.0000000000000000   14.7159315804056448
C N
  56   24
Direct
  0.3636042881885082  0.1042614836770177  0.5000000000000000
  0.8636042881885082  0.1042614836770177  0.5000000000000000
  0.3636042881885082  0.6042614836770177  0.5000000000000000
  0.8636042881885082  0.6042614836770177  0.5000000000000000
  0.1363957118114918  0.3957385163229823  0.5000000000000000
  0.6363957118114918  0.3957385163229823  0.5000000000000000
  0.1363957118114918  0.8957385163229823  0.5000000000000000
  0.6363957118114918  0.8957385163229823  0.5000000000000000
  0.3957385163229823  0.2593428045114905  0.5000000000000000
  0.8957385163229823  0.2593428045114905  0.5000000000000000
  0.3957385163229823  0.7593428045114905  0.5000000000000000
  0.8957385163229823  0.7593428045114905  0.5000000000000000
  0.1042614836770177  0.2406571954885095  0.5000000000000000
  0.6042614836770177  0.2406571954885095  0.5000000000000000
  0.1042614836770177  0.7406571954885095  0.5000000000000000
  0.6042614836770177  0.7406571954885095  0.5000000000000000
  0.2406571954885095  0.1363957118114918  0.5000000000000000
  0.7406571954885095  0.1363957118114918  0.5000000000000000
  0.2406571954885095  0.6363957118114918  0.5000000000000000
  0.7406571954885095  0.6363957118114918  0.5000000000000000
  0.2593428045114905  0.3636042881885082  0.5000000000000000
  0.7593428045114905  0.3636042881885082  0.5000000000000000
  0.2593428045114905  0.8636042881885082  0.5000000000000000
  0.7593428045114905  0.8636042881885082  0.5000000000000000
  0.2856680904843358  0.2961912168132876  0.5000000000000000
  0.7856680904843358  0.2961912168132876  0.5000000000000000
  0.2856680904843358  0.7961912168132876  0.5000000000000000
  0.7856680904843358  0.7961912168132876  0.5000000000000000
  0.2143319095156641  0.2038087831867124  0.5000000000000000
  0.7143319095156642  0.2038087831867124  0.5000000000000000
  0.2143319095156641  0.7038087831867124  0.5000000000000000
  0.7143319095156642  0.7038087831867124  0.5000000000000000
  0.2038087831867124  0.4894768736710482  0.5000000000000000
  0.7038087831867124  0.4894768736710482  0.5000000000000000
  0.2038087831867124  0.9894768736710482  0.5000000000000000
  0.7038087831867124  0.9894768736710482  0.5000000000000000
  0.2961912168132876  0.0105231263289518  0.5000000000000000
  0.7961912168132876  0.0105231263289518  0.5000000000000000
  0.2961912168132876  0.5105231263289518  0.5000000000000000
  0.7961912168132876  0.5105231263289518  0.5000000000000000
  0.0105231263289518  0.2143319095156641  0.5000000000000000
  0.5105231263289518  0.2143319095156641  0.5000000000000000
  0.0105231263289518  0.7143319095156642  0.5000000000000000
  0.5105231263289518  0.7143319095156642  0.5000000000000000
  0.4894768736710482  0.2856680904843358  0.5000000000000000
  0.9894768736710482  0.2856680904843358  0.5000000000000000
  0.4894768736710482  0.7856680904843358  0.5000000000000000
  0.9894768736710482  0.7856680904843358  0.5000000000000000
  0.1666666714999998  0.3333333435000014  0.5000000000000000
  0.6666666714999998  0.3333333435000014  0.5000000000000000
  0.1666666714999998  0.8333333435000014  0.5000000000000000
  0.6666666714999998  0.8333333435000014  0.5000000000000000
  0.3333333134999990  0.1666666564999985  0.5000000000000000
  0.8333333134999990  0.1666666564999985  0.5000000000000000
  0.3333333134999990  0.6666666564999986  0.5000000000000000
  0.8333333134999990  0.6666666564999986  0.5000000000000000
  0.1280966306649240  0.1781578974623521  0.5000000000000000
  0.6280966306649240  0.1781578974623521  0.5000000000000000
  0.1280966306649240  0.6781578974623521  0.5000000000000000
  0.6280966306649240  0.6781578974623521  0.5000000000000000
  0.3719033843350736  0.3218421025376479  0.5000000000000000
  0.8719033843350736  0.3218421025376479  0.5000000000000000
  0.3719033843350736  0.8218421025376479  0.5000000000000000
  0.8719033843350736  0.8218421025376479  0.5000000000000000
  0.3218421025376479  0.4499387482025767  0.5000000000000000
  0.8218421025376479  0.4499387482025767  0.5000000000000000
  0.3218421025376479  0.9499387482025767  0.5000000000000000
  0.8218421025376479  0.9499387482025767  0.5000000000000000
  0.1781578974623521  0.0500612667974245  0.5000000000000000
  0.6781578974623521  0.0500612667974245  0.5000000000000000
  0.1781578974623521  0.5500612667974245  0.5000000000000000
  0.6781578974623521  0.5500612667974245  0.5000000000000000
  0.0500612667974245  0.3719033843350736  0.5000000000000000
  0.5500612667974245  0.3719033843350736  0.5000000000000000
  0.0500612667974245  0.8719033843350736  0.5000000000000000
  0.5500612667974245  0.8719033843350736  0.5000000000000000
  0.4499387482025767  0.1280966306649240  0.5000000000000000
  0.9499387482025767  0.1280966306649240  0.5000000000000000
  0.4499387482025767  0.6280966306649240  0.5000000000000000
  0.9499387482025767  0.6280966306649240  0.5000000000000000
