C2
1.0
3.000000 0.000000 0.000000
-1.500000 2.598076 0.000000
0.000000 0.000000 14.875200
C
2
direct
0.333333 0.666667 0.000000 C
0.666667 0.333333 0.000000 C
